32      2       
29      15      
0       0       0       3       2       3       4       
8       10      0       2       9       17      
2       0       1       2       15      16      
10      1       0       3       5       8       10      
10      3       0       3       6       7       11      
6       4       0       1       12      
9       9       0       2       26      27      
8       0       10      3       13      14      19      
5       9       0       2       12      28      
7       0       9       2       22      28      
3       6       0       1       12      
5       0       1       1       25      
8       0       3       2       20      29      
9       10      0       3       18      21      31      
6       0       1       1       24      
4       9       0       2       22      23      
8       7       0       1       27      
5       4       0       1       28      
6       10      0       1       23      
8       7       0       1       26      
1       0       8       1       24      
6       9       0       1       30      
2       0       9       1       26      
10      4       0       1       25      
1       0       3       1       30      
2       0       3       1       30      
2       0       5       1       29      
6       6       0       1       29      
6       4       0       1       32      
4       0       1       1       32      
1       9       0       1       32      
0       0       0       0       